50 994
585 194 426 606 348 516 521 1092 422 749 895 337 143 557 945 915 1055 546 352 522 109 891 1001 459 222 767 194 698 838 107 674 644 815 434 982 866 467 1094 1084 993 399 733 533 231 782 528 172 800 974 717 
485 94 326 506 248 416 421 992 322 649 795 237 43 457 845 815 955 446 252 422 9 791 901 359 122 667 94 598 738 7 574 544 715 334 882 766 367 994 984 893 299 633 433 131 682 428 72 700 874 617 
